p td 100 100
0 34
0 53
3 33
3 96
4 82
4 84
4 51
4 23
6 13
7 97
7 73
8 57
9 68
10 49
10 22
12 58
12 49
12 19
14 50
15 59
16 95
16 24
16 73
16 20
16 36
17 28
17 73
20 82
20 98
20 53
20 95
20 45
21 48
22 39
23 91
25 39
25 93
25 98
26 79
26 35
26 65
29 39
29 72
29 99
29 35
30 93
30 85
31 97
32 48
33 54
33 85
34 91
34 59
35 64
36 99
36 84
39 79
40 80
40 76
41 96
42 70
42 91
42 43
43 73
43 61
44 55
46 58
47 88
48 86
48 69
50 52
50 62
52 96
53 95
53 90
53 72
54 99
55 73
56 57
56 66
57 96
61 91
62 84
64 91
66 82
67 87
68 69
69 86
73 92
74 92
74 82
75 97
75 82
75 80
79 91
79 85
80 99
81 84
82 91
83 88
